Score: 23
1 0 1 2 3 4 5 6 7 8 9 10 11 12 13 14 15 16 17 18 19 20 21 22 23 24 25 26 27 28 29 30 31 32 33 34 35 36 37 38 39 40 41 42 43 44 45 46 47 48 49 50 51 52 53 54 55 56 57 58 59 60 61 62 255 256 257 258 259 260 261 262 263 264 265 266 267 268 269 270 271 272 273 274 275 276 277 278 279 280 281 282 283 284 285 286 287 288 289 290 291 292 293 294 295 296 297 298 299 300 301 302 303 304 305 306 307 308 309 310 311 312 313 314 315 316 317 318
1 0 1 2 3 4 5 6 7 8 9 10 11 12 13 14 15 16 17 18 19 20 21 22 23 24 25 26 27 28 29 30 63 64 65 66 67 68 69 70 71 72 73 74 75 76 77 78 79 80 81 82 83 84 85 86 87 88 89 90 91 92 93 94 255 256 257 258 259 260 261 262 263 264 265 266 267 268 269 270 271 272 273 274 275 276 277 278 279 280 281 282 283 284 285 286 319 320 321 322 323 324 325 326 327 328 329 330 331 332 333 334 335 336 337 338 339 340 341 342 343 344 345 346 347 348 349 350
1 0 1 2 7 8 9 10 15 16 17 18 23 24 25 26 31 32 33 34 39 40 41 42 47 48 49 50 55 56 57 58 127 128 129 130 135 136 137 138 143 144 145 146 151 152 153 154 159 160 161 162 167 168 169 170 175 176 177 178 183 184 185 186 255 256 257 258 263 264 265 266 271 272 273 274 279 280 281 282 287 288 289 290 295 296 297 298 303 304 305 306 311 312 313 314 383 384 385 386 391 392 393 394 399 400 401 402 407 408 409 410 415 416 417 418 423 424 425 426 431 432 433 434 439 440 441 442
1 0 3 4 7 8 11 12 31 32 35 36 39 40 43 44 63 64 67 68 71 72 75 76 95 96 99 100 103 104 107 108 127 128 131 132 135 136 139 140 159 160 163 164 167 168 171 172 191 192 195 196 199 200 203 204 223 224 227 228 231 232 235 236 511 512 515 516 519 520 523 524 543 544 547 548 551 552 555 556 575 576 579 580 583 584 587 588 607 608 611 612 615 616 619 620 639 640 643 644 647 648 651 652 671 672 675 676 679 680 683 684 703 704 707 708 711 712 715 716 735 736 739 740 743 744 747 748
1 1 3 5 7 9 11 13 31 33 35 37 39 41 43 45 63 65 67 69 71 73 75 77 95 97 99 101 103 105 107 109 127 129 131 133 135 137 139 141 159 161 163 165 167 169 171 173 191 193 195 197 199 201 203 205 223 225 227 229 231 233 235 237 511 513 515 517 519 521 523 525 543 545 547 549 551 553 555 557 575 577 579 581 583 585 587 589 607 609 611 613 615 617 619 621 639 641 643 645 647 649 651 653 671 673 675 677 679 681 683 685 703 705 707 709 711 713 715 717 735 737 739 741 743 745 747 749
1 0 1 2 3 4 5 6 15 16 17 18 19 20 21 22 31 32 33 34 35 36 37 38 47 48 49 50 51 52 53 54 255 256 257 258 259 260 261 262 271 272 273 274 275 276 277 278 287 288 289 290 291 292 293 294 303 304 305 306 307 308 309 310 511 512 513 514 515 516 517 518 527 528 529 530 531 532 533 534 543 544 545 546 547 548 549 550 559 560 561 562 563 564 565 566 767 768 769 770 771 772 773 774 783 784 785 786 787 788 789 790 799 800 801 802 803 804 805 806 815 816 817 818 819 820 821 822
1 0 1 2 15 16 17 18 63 64 65 66 79 80 81 82 127 128 129 130 143 144 145 146 191 192 193 194 207 208 209 210 255 256 257 258 271 272 273 274 319 320 321 322 335 336 337 338 383 384 385 386 399 400 401 402 447 448 449 450 463 464 465 466 511 512 513 514 527 528 529 530 575 576 577 578 591 592 593 594 639 640 641 642 655 656 657 658 703 704 705 706 719 720 721 722 767 768 769 770 783 784 785 786 831 832 833 834 847 848 849 850 895 896 897 898 911 912 913 914 959 960 961 962 975 976 977 978
1 3 7 11 31 35 39 43 63 67 71 75 95 99 103 107 127 131 135 139 159 163 167 171 191 195 199 203 223 227 231 235 255 259 263 267 287 291 295 299 319 323 327 331 351 355 359 363 383 387 391 395 415 419 423 427 447 451 455 459 479 483 487 491 511 515 519 523 543 547 551 555 575 579 583 587 607 611 615 619 639 643 647 651 671 675 679 683 703 707 711 715 735 739 743 747 767 771 775 779 799 803 807 811 831 835 839 843 863 867 871 875 895 899 903 907 927 931 935 939 959 963 967 971 991 995 999 1003
1 0 3 4 15 16 19 20 31 32 35 36 47 48 51 52 63 64 67 68 79 80 83 84 95 96 99 100 111 112 115 116 127 128 131 132 143 144 147 148 159 160 163 164 175 176 179 180 191 192 195 196 207 208 211 212 223 224 227 228 239 240 243 244 777 778 781 782 793 794 797 798 809 810 813 814 825 826 829 830 841 842 845 846 857 858 861 862 873 874 877 878 889 890 893 894 905 906 909 910 921 922 925 926 937 938 941 942 953 954 957 958 969 970 973 974 985 986 989 990 1001 1002 1005 1006 1017 1018 1021 1022
1 1 3 5 15 17 19 21 31 33 35 37 47 49 51 53 63 65 67 69 79 81 83 85 95 97 99 101 111 113 115 117 127 129 131 133 143 145 147 149 159 161 163 165 175 177 179 181 191 193 195 197 207 209 211 213 223 225 227 229 239 241 243 245 776 778 780 782 792 794 796 798 808 810 812 814 824 826 828 830 840 842 844 846 856 858 860 862 872 874 876 878 888 890 892 894 904 906 908 910 920 922 924 926 936 938 940 942 952 954 956 958 968 970 972 974 984 986 988 990 1000 1002 1004 1006 1016 1018 1020 1022
1 0 1 2 3 4 5 6 7 8 9 10 11 12 13 14 63 64 65 66 67 68 69 70 71 72 73 74 75 76 77 78 255 256 257 258 259 260 261 262 263 264 265 266 267 268 269 270 319 320 321 322 323 324 325 326 327 328 329 330 331 332 333 334 687 688 689 690 691 692 693 694 695 696 697 698 699 700 701 702 751 752 753 754 755 756 757 758 759 760 761 762 763 764 765 766 943 944 945 946 947 948 949 950 951 952 953 954 955 956 957 958 1007 1008 1009 1010 1011 1012 1013 1014 1015 1016 1017 1018 1019 1020 1021 1022
1 0 1 2 7 8 9 10 31 32 33 34 39 40 41 42 127 128 129 130 135 136 137 138 159 160 161 162 167 168 169 170 255 256 257 258 263 264 265 266 287 288 289 290 295 296 297 298 383 384 385 386 391 392 393 394 415 416 417 418 423 424 425 426 595 596 597 598 603 604 605 606 627 628 629 630 635 636 637 638 723 724 725 726 731 732 733 734 755 756 757 758 763 764 765 766 851 852 853 854 859 860 861 862 883 884 885 886 891 892 893 894 979 980 981 982 987 988 989 990 1011 1012 1013 1014 1019 1020 1021 1022
1 0 1 2 7 8 9 10 63 64 65 66 71 72 73 74 127 128 129 130 135 136 137 138 191 192 193 194 199 200 201 202 255 256 257 258 263 264 265 266 319 320 321 322 327 328 329 330 383 384 385 386 391 392 393 394 447 448 449 450 455 456 457 458 563 564 565 566 571 572 573 574 627 628 629 630 635 636 637 638 691 692 693 694 699 700 701 702 755 756 757 758 763 764 765 766 819 820 821 822 827 828 829 830 883 884 885 886 891 892 893 894 947 948 949 950 955 956 957 958 1011 1012 1013 1014 1019 1020 1021 1022
1 3 15 19 31 35 47 51 63 67 79 83 95 99 111 115 127 131 143 147 159 163 175 179 191 195 207 211 223 227 239 243 255 259 271 275 287 291 303 307 319 323 335 339 351 355 367 371 383 387 399 403 415 419 431 435 447 451 463 467 479 483 495 499 522 526 538 542 554 558 570 574 586 590 602 606 618 622 634 638 650 654 666 670 682 686 698 702 714 718 730 734 746 750 762 766 778 782 794 798 810 814 826 830 842 846 858 862 874 878 890 894 906 910 922 926 938 942 954 958 970 974 986 990 1002 1006 1018 1022
1 0 7 8 15 16 23 24 31 32 39 40 47 48 55 56 63 64 71 72 79 80 87 88 95 96 103 104 111 112 119 120 389 390 397 398 405 406 413 414 421 422 429 430 437 438 445 446 453 454 461 462 469 470 477 478 485 486 493 494 501 502 509 510 511 512 519 520 527 528 535 536 543 544 551 552 559 560 567 568 575 576 583 584 591 592 599 600 607 608 615 616 623 624 631 632 901 902 909 910 917 918 925 926 933 934 941 942 949 950 957 958 965 966 973 974 981 982 989 990 997 998 1005 1006 1013 1014 1021 1022
1 1 7 9 15 17 23 25 31 33 39 41 47 49 55 57 63 65 71 73 79 81 87 89 95 97 103 105 111 113 119 121 388 390 396 398 404 406 412 414 420 422 428 430 436 438 444 446 452 454 460 462 468 470 476 478 484 486 492 494 500 502 508 510 511 513 519 521 527 529 535 537 543 545 551 553 559 561 567 569 575 577 583 585 591 593 599 601 607 609 615 617 623 625 631 633 900 902 908 910 916 918 924 926 932 934 940 942 948 950 956 958 964 966 972 974 980 982 988 990 996 998 1004 1006 1012 1014 1020 1022
1 0 3 4 7 8 11 12 15 16 19 20 23 24 27 28 127 128 131 132 135 136 139 140 143 144 147 148 151 152 155 156 353 354 357 358 361 362 365 366 369 370 373 374 377 378 381 382 481 482 485 486 489 490 493 494 497 498 501 502 505 506 509 510 511 512 515 516 519 520 523 524 527 528 531 532 535 536 539 540 639 640 643 644 647 648 651 652 655 656 659 660 663 664 667 668 865 866 869 870 873 874 877 878 881 882 885 886 889 890 893 894 993 994 997 998 1001 1002 1005 1006 1009 1010 1013 1014 1017 1018 1021 1022
1 1 3 5 7 9 11 13 15 17 19 21 23 25 27 29 127 129 131 133 135 137 139 141 143 145 147 149 151 153 155 157 352 354 356 358 360 362 364 366 368 370 372 374 376 378 380 382 480 482 484 486 488 490 492 494 496 498 500 502 504 506 508 510 511 513 515 517 519 521 523 525 527 529 531 533 535 537 539 541 639 641 643 645 647 649 651 653 655 657 659 661 663 665 667 669 864 866 868 870 872 874 876 878 880 882 884 886 888 890 892 894 992 994 996 998 1000 1002 1004 1006 1008 1010 1012 1014 1016 1018 1020 1022
1 0 1 2 3 4 5 6 31 32 33 34 35 36 37 38 215 216 217 218 219 220 221 222 247 248 249 250 251 252 253 254 255 256 257 258 259 260 261 262 287 288 289 290 291 292 293 294 471 472 473 474 475 476 477 478 503 504 505 506 507 508 509 510 511 512 513 514 515 516 517 518 543 544 545 546 547 548 549 550 727 728 729 730 731 732 733 734 759 760 761 762 763 764 765 766 767 768 769 770 771 772 773 774 799 800 801 802 803 804 805 806 983 984 985 986 987 988 989 990 1015 1016 1017 1018 1019 1020 1021 1022
1 0 1 2 3 4 5 6 63 64 65 66 67 68 69 70 183 184 185 186 187 188 189 190 247 248 249 250 251 252 253 254 255 256 257 258 259 260 261 262 319 320 321 322 323 324 325 326 439 440 441 442 443 444 445 446 503 504 505 506 507 508 509 510 511 512 513 514 515 516 517 518 575 576 577 578 579 580 581 582 695 696 697 698 699 700 701 702 759 760 761 762 763 764 765 766 767 768 769 770 771 772 773 774 831 832 833 834 835 836 837 838 951 952 953 954 955 956 957 958 1015 1016 1017 1018 1019 1020 1021 1022
1 7 15 23 31 39 47 55 63 71 79 87 95 103 111 119 134 142 150 158 166 174 182 190 198 206 214 222 230 238 246 254 255 263 271 279 287 295 303 311 319 327 335 343 351 359 367 375 390 398 406 414 422 430 438 446 454 462 470 478 486 494 502 510 511 519 527 535 543 551 559 567 575 583 591 599 607 615 623 631 646 654 662 670 678 686 694 702 710 718 726 734 742 750 758 766 767 775 783 791 799 807 815 823 831 839 847 855 863 871 879 887 902 910 918 926 934 942 950 958 966 974 982 990 998 1006 1014 1022
1 3 7 11 15 19 23 27 98 102 106 110 114 118 122 126 127 131 135 139 143 147 151 155 226 230 234 238 242 246 250 254 255 259 263 267 271 275 279 283 354 358 362 366 370 374 378 382 383 387 391 395 399 403 407 411 482 486 490 494 498 502 506 510 511 515 519 523 527 531 535 539 610 614 618 622 626 630 634 638 639 643 647 651 655 659 663 667 738 742 746 750 754 758 762 766 767 771 775 779 783 787 791 795 866 870 874 878 882 886 890 894 895 899 903 907 911 915 919 923 994 998 1002 1006 1010 1014 1018 1022
1 0 1 2 31 32 33 34 91 92 93 94 123 124 125 126 127 128 129 130 159 160 161 162 219 220 221 222 251 252 253 254 255 256 257 258 287 288 289 290 347 348 349 350 379 380 381 382 383 384 385 386 415 416 417 418 475 476 477 478 507 508 509 510 511 512 513 514 543 544 545 546 603 604 605 606 635 636 637 638 639 640 641 642 671 672 673 674 731 732 733 734 763 764 765 766 767 768 769 770 799 800 801 802 859 860 861 862 891 892 893 894 895 896 897 898 927 928 929 930 987 988 989 990 1019 1020 1021 1022
